\ Model qkp01
\ LP format - for model browsing. Use MPS format to capture full model detail.
Maximize
  33 x_2 + 37 x_9 + 5 x_12 + 46 x_15 + 44 x_23 + 11 x_26 + x_36 + 26 x_38
   + 6 x_40 + 41 x_42 + 41 x_46 + 50 x_49 + 6 x_54 + 16 x_55 + 18 x_58
   + 7 x_66 + 14 x_72 + 49 x_75 + 12 x_77 + 9 x_78 + 39 x_84 + 3 x_85
   + 46 x_86 + 45 x_89 + 7 x_91 + 41 x_95 + x_99 + [ 64 x_1 * x_7
   + 10 x_1 * x_14 + 54 x_1 * x_16 + 86 x_1 * x_21 + 92 x_1 * x_23
   + 80 x_1 * x_24 + 76 x_1 * x_28 + 6 x_1 * x_32 + 78 x_1 * x_36
   + 32 x_1 * x_39 + 52 x_1 * x_42 + 46 x_1 * x_45 + 22 x_1 * x_50
   + 74 x_1 * x_55 + 30 x_1 * x_58 + 38 x_1 * x_61 + 60 x_1 * x_62
   + 86 x_1 * x_64 + 96 x_1 * x_65 + 66 x_1 * x_66 + 80 x_1 * x_69
   + 38 x_1 * x_77 + 74 x_1 * x_78 + 46 x_1 * x_80 + 18 x_1 * x_81
   + 48 x_1 * x_83 + 54 x_1 * x_84 + 92 x_1 * x_96 + 96 x_1 * x_98
   + 12 x_2 * x_5 + 32 x_2 * x_6 + 26 x_2 * x_8 + 32 x_2 * x_15
   + 72 x_2 * x_18 + 8 x_2 * x_21 + 42 x_2 * x_26 + 48 x_2 * x_30
   + 36 x_2 * x_33 + 24 x_2 * x_34 + 74 x_2 * x_35 + 34 x_2 * x_40
   + 74 x_2 * x_49 + 40 x_2 * x_57 + 92 x_2 * x_63 + 48 x_2 * x_69
   + 50 x_2 * x_70 + 76 x_2 * x_76 + 10 x_2 * x_77 + 36 x_2 * x_80
   + 32 x_2 * x_81 + 22 x_2 * x_86 + 16 x_2 * x_93 + 10 x_2 * x_98
   + 90 x_2 * x_99 + 28 x_3 * x_5 + 92 x_3 * x_17 + 64 x_3 * x_30
   + 32 x_3 * x_34 + 18 x_3 * x_38 + 4 x_3 * x_39 + 96 x_3 * x_44
   + 62 x_3 * x_46 + 16 x_3 * x_49 + 46 x_3 * x_52 + 12 x_3 * x_54
   + 82 x_3 * x_55 + 32 x_3 * x_58 + 40 x_3 * x_59 + 84 x_3 * x_64
   + 96 x_3 * x_66 + 34 x_3 * x_67 + 70 x_3 * x_69 + 22 x_3 * x_71
   + 28 x_3 * x_77 + 80 x_3 * x_80 + 42 x_3 * x_88 + 2 x_3 * x_91
   + 6 x_3 * x_95 + 4 x_3 * x_100 + 34 x_4 * x_9 + 36 x_4 * x_12
   + 56 x_4 * x_13 + 78 x_4 * x_14 + 84 x_4 * x_16 + 88 x_4 * x_19
   + 76 x_4 * x_32 + 14 x_4 * x_49 + 82 x_4 * x_50 + 44 x_4 * x_51
   + 80 x_4 * x_56 + 46 x_4 * x_60 + 42 x_4 * x_72 + 2 x_4 * x_74
   + 94 x_4 * x_77 + 48 x_4 * x_86 + 8 x_4 * x_90 + 52 x_4 * x_91
   + 94 x_4 * x_93 + 82 x_4 * x_94 + 44 x_4 * x_96 + 62 x_5 * x_9
   + 50 x_5 * x_14 + 84 x_5 * x_18 + 90 x_5 * x_19 + 40 x_5 * x_20
   + 10 x_5 * x_21 + 80 x_5 * x_22 + 82 x_5 * x_29 + 42 x_5 * x_30
   + 74 x_5 * x_33 + 38 x_5 * x_34 + 46 x_5 * x_41 + 8 x_5 * x_43
   + 30 x_5 * x_63 + 76 x_5 * x_68 + 2 x_5 * x_75 + 70 x_5 * x_76
   + 14 x_5 * x_80 + 32 x_5 * x_91 + 52 x_5 * x_93 + 82 x_5 * x_99
   + 52 x_5 * x_100 + 38 x_6 * x_8 + 38 x_6 * x_13 + 10 x_6 * x_15
   + 32 x_6 * x_20 + 2 x_6 * x_22 + 22 x_6 * x_28 + 10 x_6 * x_30
   + 38 x_6 * x_38 + 2 x_6 * x_41 + 30 x_6 * x_45 + 94 x_6 * x_52
   + 84 x_6 * x_54 + 12 x_6 * x_60 + 2 x_6 * x_61 + 74 x_6 * x_68
   + 8 x_6 * x_72 + 2 x_6 * x_74 + 90 x_6 * x_78 + 82 x_6 * x_81
   + 84 x_6 * x_84 + 70 x_6 * x_88 + 98 x_6 * x_89 + 26 x_6 * x_92
   + 10 x_6 * x_94 + 44 x_6 * x_95 + 72 x_6 * x_96 + 72 x_7 * x_12
   + 48 x_7 * x_15 + 72 x_7 * x_18 + 38 x_7 * x_23 + 70 x_7 * x_24
   + 84 x_7 * x_38 + 40 x_7 * x_41 + 92 x_7 * x_45 + 56 x_7 * x_46
   + 28 x_7 * x_52 + 66 x_7 * x_55 + 80 x_7 * x_58 + 58 x_7 * x_63
   + 54 x_7 * x_68 + 48 x_7 * x_69 + 68 x_7 * x_73 + 38 x_7 * x_74
   + 38 x_7 * x_76 + 30 x_7 * x_77 + 62 x_7 * x_78 + 46 x_7 * x_79
   + 20 x_7 * x_82 + 32 x_7 * x_94 + 96 x_7 * x_97 + 64 x_7 * x_99
   + 72 x_8 * x_12 + 16 x_8 * x_14 + 100 x_8 * x_15 + 30 x_8 * x_16
   + 76 x_8 * x_26 + 100 x_8 * x_28 + 90 x_8 * x_29 + 38 x_8 * x_30
   + 58 x_8 * x_40 + 54 x_8 * x_45 + 8 x_8 * x_46 + 98 x_8 * x_48
   + 48 x_8 * x_50 + 2 x_8 * x_55 + 96 x_8 * x_65 + 100 x_8 * x_78
   + 86 x_8 * x_80 + 18 x_8 * x_84 + 14 x_8 * x_94 + 6 x_8 * x_99
   + 18 x_9 * x_21 + 80 x_9 * x_22 + 32 x_9 * x_27 + 40 x_9 * x_29
   + 28 x_9 * x_37 + 32 x_9 * x_38 + 22 x_9 * x_43 + 60 x_9 * x_47
   + 86 x_9 * x_48 + 94 x_9 * x_49 + 18 x_9 * x_50 + 44 x_9 * x_52
   + 88 x_9 * x_64 + 34 x_9 * x_67 + 80 x_9 * x_69 + 98 x_9 * x_70
   + 94 x_9 * x_77 + 34 x_9 * x_78 + 80 x_9 * x_83 + 8 x_9 * x_91
   + 34 x_9 * x_95 + 52 x_9 * x_100 + 20 x_10 * x_15 + 100 x_10 * x_21
   + 38 x_10 * x_37 + 6 x_10 * x_38 + 72 x_10 * x_40 + 66 x_10 * x_44
   + 38 x_10 * x_55 + 78 x_10 * x_58 + 56 x_10 * x_61 + 68 x_10 * x_62
   + 46 x_10 * x_64 + 28 x_10 * x_67 + 4 x_10 * x_77 + 4 x_10 * x_86
   + 2 x_10 * x_89 + 78 x_11 * x_14 + 26 x_11 * x_20 + 46 x_11 * x_23
   + 8 x_11 * x_25 + 8 x_11 * x_27 + 38 x_11 * x_30 + 50 x_11 * x_37
   + 40 x_11 * x_43 + 94 x_11 * x_52 + 2 x_11 * x_53 + 88 x_11 * x_56
   + 70 x_11 * x_57 + 96 x_11 * x_63 + 48 x_11 * x_64 + 100 x_11 * x_67
   + 30 x_11 * x_69 + 16 x_11 * x_72 + 6 x_11 * x_76 + 60 x_11 * x_79
   + 16 x_11 * x_80 + 84 x_11 * x_82 + 4 x_11 * x_85 + 80 x_11 * x_87
   + 8 x_11 * x_88 + 48 x_11 * x_96 + 30 x_11 * x_100 + 28 x_12 * x_14
   + 52 x_12 * x_15 + 58 x_12 * x_16 + 58 x_12 * x_22 + 58 x_12 * x_32
   + 72 x_12 * x_33 + 98 x_12 * x_36 + 38 x_12 * x_37 + 42 x_12 * x_38
   + 82 x_12 * x_39 + 92 x_12 * x_48 + 56 x_12 * x_49 + 100 x_12 * x_58
   + 22 x_12 * x_61 + 52 x_12 * x_62 + 96 x_12 * x_64 + 30 x_12 * x_65
   + 44 x_12 * x_66 + 60 x_12 * x_69 + 40 x_12 * x_70 + 58 x_12 * x_73
   + 100 x_12 * x_84 + 12 x_12 * x_93 + 16 x_12 * x_94 + 14 x_12 * x_95
   + 42 x_12 * x_96 + 84 x_12 * x_98 + 2 x_13 * x_15 + 54 x_13 * x_22
   + 46 x_13 * x_28 + 46 x_13 * x_40 + 46 x_13 * x_48 + 90 x_13 * x_58
   + 56 x_13 * x_60 + 56 x_13 * x_64 + 14 x_13 * x_77 + 2 x_13 * x_82
   + 38 x_13 * x_84 + 52 x_13 * x_90 + 78 x_13 * x_91 + 58 x_13 * x_92
   + 76 x_13 * x_93 + 22 x_13 * x_99 + 22 x_14 * x_15 + 66 x_14 * x_17
   + 56 x_14 * x_19 + 68 x_14 * x_21 + 98 x_14 * x_23 + 34 x_14 * x_24
   + 10 x_14 * x_25 + 16 x_14 * x_27 + 36 x_14 * x_29 + 64 x_14 * x_30
   + 96 x_14 * x_32 + 52 x_14 * x_33 + 68 x_14 * x_39 + 46 x_14 * x_44
   + 82 x_14 * x_45 + 10 x_14 * x_48 + 32 x_14 * x_50 + 84 x_14 * x_53
   + 38 x_14 * x_54 + 22 x_14 * x_59 + 46 x_14 * x_69 + 30 x_14 * x_70
   + 88 x_14 * x_71 + 86 x_14 * x_72 + 86 x_14 * x_76 + 100 x_14 * x_78
   + 14 x_14 * x_79 + 42 x_14 * x_83 + 70 x_14 * x_89 + 94 x_15 * x_16
   + 16 x_15 * x_17 + 34 x_15 * x_19 + 8 x_15 * x_21 + 4 x_15 * x_22
   + 22 x_15 * x_23 + 36 x_15 * x_27 + 64 x_15 * x_28 + 84 x_15 * x_30
   + 14 x_15 * x_35 + 48 x_15 * x_43 + 96 x_15 * x_46 + 80 x_15 * x_51
   + 82 x_15 * x_53 + 82 x_15 * x_56 + 58 x_15 * x_60 + 38 x_15 * x_62
   + 96 x_15 * x_63 + 78 x_15 * x_65 + 66 x_15 * x_67 + 10 x_15 * x_68
   + 6 x_15 * x_70 + 24 x_15 * x_72 + 26 x_15 * x_79 + 24 x_15 * x_83
   + 14 x_15 * x_87 + 86 x_15 * x_88 + 96 x_15 * x_92 + 4 x_15 * x_93
   + 96 x_15 * x_98 + 72 x_15 * x_100 + 16 x_16 * x_19 + 84 x_16 * x_24
   + 6 x_16 * x_26 + 78 x_16 * x_38 + 80 x_16 * x_39 + 52 x_16 * x_48
   + 84 x_16 * x_53 + 88 x_16 * x_55 + 6 x_16 * x_57 + 26 x_16 * x_59
   + 98 x_16 * x_66 + 16 x_16 * x_71 + 46 x_16 * x_73 + 42 x_16 * x_76
   + 4 x_16 * x_78 + 80 x_16 * x_79 + 78 x_16 * x_85 + 96 x_16 * x_86
   + 60 x_16 * x_89 + 62 x_16 * x_90 + 44 x_16 * x_93 + 44 x_17 * x_22
   + 46 x_17 * x_24 + 24 x_17 * x_32 + 18 x_17 * x_34 + 94 x_17 * x_38
   + 38 x_17 * x_40 + 54 x_17 * x_41 + 82 x_17 * x_45 + 86 x_17 * x_50
   + 42 x_17 * x_52 + 76 x_17 * x_55 + 30 x_17 * x_64 + 40 x_17 * x_67
   + 50 x_17 * x_73 + 20 x_17 * x_74 + 76 x_17 * x_77 + 26 x_17 * x_81
   + 68 x_17 * x_87 + 60 x_17 * x_89 + 96 x_17 * x_95 + 84 x_18 * x_27
   + 4 x_18 * x_30 + 28 x_18 * x_37 + 96 x_18 * x_41 + 88 x_18 * x_48
   + 78 x_18 * x_55 + 50 x_18 * x_62 + 92 x_18 * x_66 + 64 x_18 * x_68
   + 18 x_18 * x_70 + 6 x_18 * x_73 + 74 x_18 * x_76 + 14 x_18 * x_80
   + 52 x_18 * x_82 + 70 x_18 * x_84 + 6 x_18 * x_89 + 86 x_18 * x_97
   + 6 x_18 * x_98 + 40 x_19 * x_24 + 28 x_19 * x_44 + 8 x_19 * x_46
   + 46 x_19 * x_49 + 86 x_19 * x_53 + 46 x_19 * x_57 + 96 x_19 * x_64
   + 82 x_19 * x_67 + 76 x_19 * x_70 + 98 x_19 * x_72 + 34 x_19 * x_83
   + 30 x_19 * x_84 + 30 x_19 * x_86 + 12 x_19 * x_87 + 98 x_19 * x_93
   + 70 x_19 * x_96 + 28 x_20 * x_28 + 74 x_20 * x_33 + 32 x_20 * x_39
   + 80 x_20 * x_44 + 96 x_20 * x_47 + 38 x_20 * x_48 + 96 x_20 * x_57
   + 96 x_20 * x_59 + 8 x_20 * x_61 + 62 x_20 * x_66 + 66 x_20 * x_67
   + 42 x_20 * x_68 + 6 x_20 * x_77 + 56 x_20 * x_88 + 84 x_21 * x_25
   + 4 x_21 * x_29 + 60 x_21 * x_33 + 90 x_21 * x_41 + 12 x_21 * x_42
   + 80 x_21 * x_43 + 18 x_21 * x_50 + 50 x_21 * x_51 + 52 x_21 * x_53
   + 10 x_21 * x_54 + 12 x_21 * x_56 + 42 x_21 * x_60 + 88 x_21 * x_61
   + 66 x_21 * x_63 + 62 x_21 * x_64 + 72 x_21 * x_69 + 62 x_21 * x_73
   + 2 x_21 * x_76 + 58 x_21 * x_82 + 58 x_21 * x_83 + 4 x_21 * x_93
   + 48 x_21 * x_96 + 12 x_21 * x_98 + 30 x_22 * x_26 + 30 x_22 * x_27
   + 78 x_22 * x_30 + 74 x_22 * x_32 + 22 x_22 * x_35 + 20 x_22 * x_36
   + 48 x_22 * x_37 + 40 x_22 * x_39 + 40 x_22 * x_42 + 64 x_22 * x_43
   + 22 x_22 * x_48 + 80 x_22 * x_59 + 48 x_22 * x_60 + 64 x_22 * x_67
   + 14 x_22 * x_70 + 24 x_22 * x_72 + 68 x_22 * x_73 + 16 x_22 * x_76
   + 62 x_22 * x_79 + 96 x_22 * x_87 + 24 x_23 * x_25 + 4 x_23 * x_26
   + 16 x_23 * x_39 + 18 x_23 * x_40 + 84 x_23 * x_44 + 80 x_23 * x_49
   + 72 x_23 * x_58 + 58 x_23 * x_61 + 62 x_23 * x_65 + 84 x_23 * x_70
   + 8 x_23 * x_75 + 66 x_23 * x_78 + 36 x_23 * x_79 + 24 x_23 * x_84
   + 48 x_23 * x_85 + 58 x_23 * x_92 + 22 x_23 * x_98 + 32 x_24 * x_26
   + 48 x_24 * x_29 + 94 x_24 * x_46 + 82 x_24 * x_53 + 2 x_24 * x_55
   + 10 x_24 * x_61 + 44 x_24 * x_63 + 44 x_24 * x_64 + 60 x_24 * x_65
   + 96 x_24 * x_67 + 72 x_24 * x_68 + 28 x_24 * x_71 + 58 x_24 * x_76
   + 42 x_24 * x_90 + 40 x_24 * x_92 + 70 x_24 * x_93 + 32 x_24 * x_97
   + 22 x_24 * x_98 + 26 x_24 * x_99 + 16 x_25 * x_27 + 46 x_25 * x_32
   + 36 x_25 * x_33 + 22 x_25 * x_50 + 58 x_25 * x_61 + 56 x_25 * x_63
   + 50 x_25 * x_67 + 4 x_25 * x_75 + 82 x_25 * x_76 + 94 x_25 * x_81
   + 78 x_25 * x_86 + 10 x_25 * x_89 + 82 x_25 * x_92 + 60 x_25 * x_96
   + 48 x_25 * x_98 + 32 x_26 * x_28 + 52 x_26 * x_29 + 94 x_26 * x_30
   + 86 x_26 * x_34 + 2 x_26 * x_42 + 56 x_26 * x_48 + 4 x_26 * x_50
   + 88 x_26 * x_51 + 20 x_26 * x_52 + 88 x_26 * x_53 + 32 x_26 * x_54
   + 54 x_26 * x_56 + 76 x_26 * x_79 + 50 x_26 * x_82 + 68 x_26 * x_90
   + 30 x_26 * x_91 + 80 x_26 * x_92 + 96 x_26 * x_95 + 68 x_26 * x_100
   + 52 x_27 * x_30 + 18 x_27 * x_32 + 80 x_27 * x_37 + 64 x_27 * x_49
   + 20 x_27 * x_50 + 12 x_27 * x_51 + 30 x_27 * x_53 + 32 x_27 * x_58
   + 54 x_27 * x_60 + 12 x_27 * x_62 + 68 x_27 * x_63 + 98 x_27 * x_65
   + 12 x_27 * x_66 + 42 x_27 * x_69 + 86 x_27 * x_70 + 68 x_27 * x_74
   + 48 x_27 * x_80 + 38 x_27 * x_87 + 60 x_27 * x_88 + 74 x_27 * x_97
   + 80 x_28 * x_29 + 40 x_28 * x_30 + 76 x_28 * x_31 + 8 x_28 * x_35
   + 74 x_28 * x_43 + 86 x_28 * x_46 + 76 x_28 * x_48 + 78 x_28 * x_51
   + 32 x_28 * x_52 + 70 x_28 * x_58 + 48 x_28 * x_59 + 46 x_28 * x_63
   + 6 x_28 * x_64 + 32 x_28 * x_65 + 24 x_28 * x_68 + 18 x_28 * x_77
   + 100 x_28 * x_78 + 86 x_28 * x_79 + 86 x_28 * x_83 + 74 x_28 * x_84
   + 30 x_28 * x_85 + 26 x_28 * x_86 + 88 x_28 * x_98 + 22 x_28 * x_100
   + 2 x_29 * x_31 + 88 x_29 * x_35 + 16 x_29 * x_37 + 14 x_29 * x_38
   + 54 x_29 * x_39 + 74 x_29 * x_40 + 98 x_29 * x_48 + 98 x_29 * x_53
   + 80 x_29 * x_59 + 94 x_29 * x_62 + 20 x_29 * x_68 + 58 x_29 * x_71
   + 60 x_29 * x_76 + 34 x_29 * x_77 + 54 x_29 * x_78 + 6 x_29 * x_84
   + 40 x_29 * x_87 + 32 x_29 * x_90 + 56 x_29 * x_92 + 88 x_29 * x_95
   + 86 x_29 * x_98 + 90 x_29 * x_99 + 28 x_29 * x_100 + 32 x_30 * x_31
   + 90 x_30 * x_36 + 42 x_30 * x_43 + 94 x_30 * x_53 + 100 x_30 * x_54
   + 36 x_30 * x_74 + 20 x_30 * x_84 + 98 x_30 * x_87 + 90 x_30 * x_90
   + 10 x_30 * x_94 + 90 x_30 * x_96 + 90 x_30 * x_97 + 84 x_30 * x_100
   + 4 x_31 * x_34 + 54 x_31 * x_38 + 44 x_31 * x_39 + 52 x_31 * x_46
   + 32 x_31 * x_51 + 8 x_31 * x_52 + 52 x_31 * x_54 + 64 x_31 * x_68
   + 24 x_31 * x_75 + 22 x_31 * x_83 + 6 x_31 * x_86 + 88 x_31 * x_93
   + 8 x_31 * x_95 + 84 x_31 * x_99 + 98 x_32 * x_35 + 38 x_32 * x_36
   + 46 x_32 * x_40 + 72 x_32 * x_42 + 38 x_32 * x_44 + 12 x_32 * x_45
   + 42 x_32 * x_50 + 40 x_32 * x_54 + 68 x_32 * x_59 + 30 x_32 * x_63
   + 10 x_32 * x_66 + 78 x_32 * x_69 + 8 x_32 * x_72 + 86 x_32 * x_73
   + 44 x_32 * x_79 + 90 x_32 * x_80 + 6 x_32 * x_83 + 60 x_32 * x_86
   + 22 x_32 * x_91 + 76 x_32 * x_93 + 86 x_32 * x_94 + 98 x_32 * x_100
   + 8 x_33 * x_34 + 56 x_33 * x_38 + 92 x_33 * x_40 + 26 x_33 * x_48
   + 82 x_33 * x_52 + 94 x_33 * x_54 + 86 x_33 * x_58 + 10 x_33 * x_59
   + 44 x_33 * x_62 + 84 x_33 * x_63 + 88 x_33 * x_65 + 72 x_33 * x_67
   + 42 x_33 * x_68 + 32 x_33 * x_79 + 24 x_33 * x_86 + 86 x_33 * x_88
   + 48 x_33 * x_89 + 78 x_33 * x_90 + 100 x_33 * x_92 + 8 x_33 * x_94
   + 24 x_34 * x_41 + 98 x_34 * x_43 + 70 x_34 * x_44 + 58 x_34 * x_52
   + 60 x_34 * x_60 + 24 x_34 * x_61 + 2 x_34 * x_63 + 38 x_34 * x_67
   + 92 x_34 * x_74 + 78 x_34 * x_75 + 8 x_34 * x_77 + 72 x_34 * x_80
   + 10 x_34 * x_81 + 22 x_34 * x_82 + 78 x_34 * x_87 + 44 x_34 * x_89
   + 24 x_34 * x_91 + 32 x_34 * x_93 + 68 x_34 * x_94 + 52 x_34 * x_95
   + 38 x_34 * x_98 + 60 x_34 * x_99 + 64 x_35 * x_46 + 66 x_35 * x_47
   + 98 x_35 * x_48 + 60 x_35 * x_49 + 68 x_35 * x_54 + 6 x_35 * x_55
   + 4 x_35 * x_60 + 20 x_35 * x_68 + 88 x_35 * x_69 + 34 x_35 * x_79
   + 100 x_35 * x_88 + 74 x_35 * x_90 + 18 x_35 * x_92 + 72 x_35 * x_97
   + 96 x_35 * x_98 + 90 x_35 * x_100 + 14 x_36 * x_37 + 86 x_36 * x_39
   + 70 x_36 * x_45 + 62 x_36 * x_47 + 98 x_36 * x_64 + 10 x_36 * x_70
   + 22 x_36 * x_71 + 44 x_36 * x_72 + 48 x_36 * x_75 + 10 x_36 * x_76
   + 70 x_36 * x_77 + 38 x_36 * x_78 + 10 x_36 * x_80 + 64 x_36 * x_81
   + 80 x_36 * x_84 + 36 x_36 * x_86 + 72 x_36 * x_90 + 84 x_36 * x_91
   + 32 x_36 * x_97 + 18 x_36 * x_99 + 84 x_36 * x_100 + 12 x_37 * x_45
   + 10 x_37 * x_47 + 10 x_37 * x_48 + 58 x_37 * x_49 + 60 x_37 * x_55
   + 10 x_37 * x_58 + 62 x_37 * x_60 + 82 x_37 * x_61 + 94 x_37 * x_62
   + 86 x_37 * x_63 + 18 x_37 * x_66 + 86 x_37 * x_70 + 90 x_37 * x_76
   + 72 x_37 * x_77 + 82 x_37 * x_81 + 52 x_37 * x_82 + 20 x_37 * x_88
   + 80 x_37 * x_94 + 96 x_37 * x_99 + 20 x_38 * x_39 + 38 x_38 * x_62
   + 36 x_38 * x_64 + 78 x_38 * x_65 + 14 x_38 * x_69 + 78 x_38 * x_70
   + 26 x_38 * x_75 + 76 x_38 * x_76 + 32 x_38 * x_79 + 10 x_38 * x_83
   + 68 x_38 * x_84 + 80 x_38 * x_91 + 84 x_38 * x_96 + 8 x_39 * x_41
   + 40 x_39 * x_42 + 72 x_39 * x_46 + 56 x_39 * x_53 + 80 x_39 * x_54
   + 22 x_39 * x_61 + 18 x_39 * x_63 + 44 x_39 * x_64 + 10 x_39 * x_65
   + 52 x_39 * x_70 + 74 x_39 * x_71 + 90 x_39 * x_81 + 50 x_39 * x_82
   + 30 x_39 * x_84 + 36 x_39 * x_86 + 40 x_39 * x_88 + 54 x_39 * x_90
   + 40 x_39 * x_91 + 42 x_40 * x_49 + 32 x_40 * x_50 + 42 x_40 * x_56
   + 92 x_40 * x_61 + 88 x_40 * x_62 + 90 x_40 * x_65 + 42 x_40 * x_67
   + 20 x_40 * x_71 + 68 x_40 * x_74 + 20 x_40 * x_75 + 100 x_40 * x_77
   + 24 x_40 * x_80 + 22 x_40 * x_84 + 2 x_40 * x_91 + 14 x_40 * x_99
   + 88 x_41 * x_49 + 60 x_41 * x_56 + 6 x_41 * x_67 + 52 x_41 * x_73
   + 4 x_41 * x_75 + 28 x_41 * x_79 + 70 x_41 * x_87 + 88 x_41 * x_91
   + 64 x_41 * x_92 + 28 x_41 * x_95 + 64 x_42 * x_46 + 18 x_42 * x_47
   + 12 x_42 * x_48 + 68 x_42 * x_51 + 66 x_42 * x_52 + 16 x_42 * x_55
   + 40 x_42 * x_58 + 10 x_42 * x_63 + 24 x_42 * x_66 + 92 x_42 * x_72
   + 72 x_42 * x_76 + 18 x_42 * x_77 + 38 x_42 * x_89 + 74 x_42 * x_91
   + 6 x_42 * x_93 + 44 x_42 * x_100 + 70 x_43 * x_45 + 48 x_43 * x_46
   + 66 x_43 * x_53 + 50 x_43 * x_54 + 82 x_43 * x_55 + 66 x_43 * x_56
   + 80 x_43 * x_59 + 34 x_43 * x_63 + 38 x_43 * x_65 + 30 x_43 * x_66
   + 58 x_43 * x_68 + 36 x_43 * x_69 + 90 x_43 * x_70 + 84 x_43 * x_79
   + 76 x_43 * x_80 + 28 x_43 * x_87 + 100 x_43 * x_91 + 74 x_43 * x_93
   + 66 x_43 * x_95 + 76 x_43 * x_100 + 52 x_44 * x_45 + 68 x_44 * x_46
   + 26 x_44 * x_49 + 64 x_44 * x_53 + 20 x_44 * x_62 + 100 x_44 * x_64
   + 86 x_44 * x_79 + 28 x_44 * x_81 + 80 x_44 * x_87 + 74 x_44 * x_89
   + 88 x_44 * x_90 + 26 x_44 * x_91 + 32 x_44 * x_94 + 82 x_44 * x_100
   + 58 x_45 * x_50 + 100 x_45 * x_51 + 18 x_45 * x_53 + 82 x_45 * x_54
   + 36 x_45 * x_66 + 98 x_45 * x_68 + 58 x_45 * x_75 + 46 x_45 * x_87
   + 46 x_45 * x_98 + 84 x_45 * x_100 + 40 x_46 * x_47 + 64 x_46 * x_48
   + 84 x_46 * x_52 + 68 x_46 * x_54 + 22 x_46 * x_55 + 26 x_46 * x_65
   + 24 x_46 * x_71 + 84 x_46 * x_74 + 34 x_46 * x_76 + 32 x_46 * x_78
   + 28 x_46 * x_79 + 80 x_46 * x_81 + 2 x_46 * x_83 + 10 x_46 * x_84
   + 50 x_46 * x_89 + 76 x_46 * x_90 + 42 x_46 * x_92 + 12 x_46 * x_97
   + 86 x_46 * x_100 + 88 x_47 * x_51 + 62 x_47 * x_53 + 78 x_47 * x_54
   + 12 x_47 * x_56 + 92 x_47 * x_64 + 68 x_47 * x_74 + 78 x_47 * x_79
   + 14 x_47 * x_82 + 18 x_47 * x_83 + 8 x_47 * x_87 + 24 x_47 * x_94
   + 56 x_48 * x_52 + 90 x_48 * x_57 + 86 x_48 * x_66 + 40 x_48 * x_68
   + 42 x_48 * x_70 + 40 x_48 * x_72 + 46 x_48 * x_74 + 24 x_48 * x_78
   + 72 x_48 * x_80 + 78 x_48 * x_81 + 94 x_48 * x_85 + 80 x_48 * x_86
   + 82 x_48 * x_92 + 88 x_48 * x_99 + 64 x_49 * x_54 + 34 x_49 * x_57
   + 80 x_49 * x_61 + 70 x_49 * x_62 + 54 x_49 * x_66 + 10 x_49 * x_69
   + 82 x_49 * x_76 + 18 x_49 * x_78 + 60 x_49 * x_80 + 48 x_49 * x_81
   + 50 x_49 * x_87 + 78 x_49 * x_89 + 36 x_49 * x_94 + 42 x_49 * x_95
   + 92 x_50 * x_63 + 58 x_50 * x_64 + 70 x_50 * x_66 + 46 x_50 * x_69
   + 38 x_50 * x_70 + 46 x_50 * x_71 + 14 x_50 * x_77 + 26 x_50 * x_78
   + 54 x_50 * x_86 + 52 x_50 * x_89 + 94 x_50 * x_90 + 42 x_50 * x_91
   + 46 x_50 * x_93 + 74 x_50 * x_98 + 70 x_50 * x_99 + 74 x_51 * x_54
   + 44 x_51 * x_56 + 68 x_51 * x_57 + 90 x_51 * x_60 + 34 x_51 * x_63
   + 12 x_51 * x_70 + 14 x_51 * x_75 + 28 x_51 * x_79 + 78 x_51 * x_80
   + 32 x_51 * x_84 + 54 x_51 * x_88 + 86 x_51 * x_89 + 18 x_51 * x_97
   + 80 x_51 * x_99 + 46 x_52 * x_55 + 28 x_52 * x_56 + 60 x_52 * x_62
   + 56 x_52 * x_71 + 62 x_52 * x_73 + 50 x_52 * x_82 + 74 x_52 * x_85
   + 42 x_52 * x_88 + 72 x_52 * x_92 + 54 x_52 * x_95 + 58 x_52 * x_97
   + 40 x_53 * x_56 + 70 x_53 * x_58 + 100 x_53 * x_69 + 12 x_53 * x_70
   + 64 x_53 * x_72 + 38 x_53 * x_73 + 4 x_53 * x_76 + 58 x_53 * x_77
   + 86 x_53 * x_78 + 8 x_53 * x_83 + 62 x_53 * x_84 + 70 x_53 * x_85
   + 48 x_53 * x_87 + 96 x_53 * x_91 + 98 x_53 * x_93 + 2 x_53 * x_95
   + 6 x_53 * x_99 + 10 x_54 * x_58 + 40 x_54 * x_59 + 78 x_54 * x_64
   + 54 x_54 * x_68 + 50 x_54 * x_69 + 24 x_54 * x_71 + 2 x_54 * x_73
   + 24 x_54 * x_77 + 60 x_54 * x_80 + 80 x_54 * x_83 + 52 x_54 * x_89
   + 38 x_54 * x_90 + 80 x_55 * x_60 + 82 x_55 * x_62 + 8 x_55 * x_65
   + 76 x_55 * x_66 + 2 x_55 * x_68 + 52 x_55 * x_75 + 34 x_55 * x_77
   + 2 x_55 * x_81 + 14 x_55 * x_86 + 4 x_55 * x_92 + 96 x_55 * x_94
   + 58 x_55 * x_97 + 24 x_55 * x_98 + 14 x_55 * x_100 + 38 x_56 * x_59
   + 32 x_56 * x_64 + 88 x_56 * x_66 + 56 x_56 * x_78 + 80 x_56 * x_86
   + 34 x_56 * x_88 + 94 x_56 * x_90 + 16 x_56 * x_93 + 12 x_56 * x_94
   + 36 x_56 * x_97 + 14 x_56 * x_99 + 62 x_57 * x_62 + 18 x_57 * x_66
   + 46 x_57 * x_69 + 80 x_57 * x_70 + 82 x_57 * x_76 + 96 x_57 * x_84
   + 10 x_57 * x_99 + 28 x_57 * x_100 + 40 x_58 * x_63 + 92 x_58 * x_66
   + 98 x_58 * x_69 + 32 x_58 * x_72 + 30 x_58 * x_74 + 52 x_58 * x_78
   + 42 x_58 * x_80 + 78 x_58 * x_86 + 50 x_58 * x_91 + 22 x_58 * x_94
   + 42 x_58 * x_96 + 94 x_58 * x_97 + 56 x_59 * x_60 + 2 x_59 * x_67
   + 34 x_59 * x_70 + 12 x_59 * x_72 + 46 x_59 * x_73 + 42 x_59 * x_81
   + 92 x_59 * x_82 + 54 x_59 * x_84 + 8 x_59 * x_88 + 38 x_60 * x_63
   + 80 x_60 * x_65 + 2 x_60 * x_68 + 48 x_60 * x_69 + 8 x_60 * x_76
   + 50 x_60 * x_77 + 18 x_60 * x_80 + 8 x_60 * x_82 + 96 x_60 * x_83
   + 62 x_60 * x_87 + 34 x_60 * x_88 + 76 x_60 * x_91 + 56 x_60 * x_99
   + 36 x_60 * x_100 + 94 x_61 * x_63 + 90 x_61 * x_64 + 82 x_61 * x_66
   + 32 x_61 * x_67 + 54 x_61 * x_68 + 94 x_61 * x_72 + 50 x_61 * x_75
   + 92 x_61 * x_78 + 4 x_61 * x_81 + 84 x_61 * x_85 + 26 x_61 * x_88
   + 60 x_61 * x_89 + 38 x_61 * x_96 + 60 x_61 * x_98 + 88 x_61 * x_99
   + 90 x_62 * x_70 + 48 x_62 * x_71 + 52 x_62 * x_72 + 18 x_62 * x_78
   + 12 x_62 * x_79 + 92 x_62 * x_80 + 2 x_62 * x_82 + 82 x_62 * x_85
   + 70 x_62 * x_87 + 98 x_62 * x_91 + 22 x_62 * x_92 + 52 x_62 * x_95
   + 16 x_63 * x_71 + 4 x_63 * x_75 + 34 x_63 * x_78 + 64 x_63 * x_82
   + 90 x_63 * x_89 + 24 x_63 * x_90 + 68 x_63 * x_97 + 68 x_64 * x_67
   + 78 x_64 * x_69 + 4 x_64 * x_74 + 2 x_64 * x_75 + 54 x_64 * x_76
   + 10 x_64 * x_80 + 94 x_64 * x_93 + 14 x_64 * x_94 + 100 x_64 * x_95
   + 52 x_64 * x_98 + 94 x_65 * x_66 + 46 x_65 * x_68 + 36 x_65 * x_69
   + 68 x_65 * x_81 + 34 x_65 * x_83 + 88 x_65 * x_88 + 68 x_65 * x_95
   + 36 x_65 * x_97 + 26 x_66 * x_69 + 48 x_66 * x_73 + 6 x_66 * x_92
   + 40 x_66 * x_99 + 10 x_67 * x_76 + 32 x_67 * x_77 + 40 x_67 * x_78
   + 4 x_67 * x_88 + 92 x_67 * x_91 + 34 x_68 * x_72 + 74 x_68 * x_73
   + 22 x_68 * x_75 + 88 x_68 * x_82 + 38 x_68 * x_86 + 24 x_68 * x_87
   + 78 x_68 * x_89 + 52 x_68 * x_92 + 64 x_69 * x_72 + 4 x_69 * x_79
   + 14 x_69 * x_82 + 62 x_69 * x_83 + 62 x_69 * x_87 + 50 x_69 * x_89
   + 64 x_69 * x_90 + 8 x_69 * x_95 + 86 x_69 * x_98 + 62 x_69 * x_99
   + 36 x_70 * x_75 + 16 x_70 * x_88 + 44 x_70 * x_93 + 90 x_71 * x_72
   + 72 x_71 * x_75 + 18 x_71 * x_93 + 14 x_71 * x_94 + 76 x_71 * x_96
   + 92 x_72 * x_74 + 80 x_72 * x_77 + 6 x_72 * x_78 + 68 x_72 * x_81
   + 74 x_72 * x_84 + 92 x_72 * x_87 + 66 x_72 * x_93 + 96 x_72 * x_94
   + 100 x_72 * x_99 + 2 x_73 * x_75 + 28 x_73 * x_78 + 72 x_73 * x_79
   + 64 x_73 * x_83 + 86 x_73 * x_88 + 62 x_73 * x_91 + 36 x_73 * x_93
   + 20 x_73 * x_97 + 74 x_73 * x_99 + 100 x_74 * x_95 + 72 x_74 * x_96
   + 10 x_74 * x_100 + 58 x_75 * x_76 + 38 x_75 * x_86 + 42 x_75 * x_95
   + 10 x_76 * x_77 + 20 x_76 * x_82 + 100 x_76 * x_85 + 36 x_76 * x_86
   + 18 x_76 * x_92 + 54 x_76 * x_93 + 100 x_76 * x_94 + 52 x_76 * x_95
   + 68 x_77 * x_79 + 68 x_77 * x_83 + 22 x_77 * x_84 + 8 x_77 * x_86
   + 84 x_77 * x_90 + 30 x_77 * x_95 + 66 x_77 * x_100 + 36 x_78 * x_79
   + 24 x_78 * x_83 + 46 x_78 * x_84 + 78 x_78 * x_87 + 42 x_78 * x_90
   + 24 x_78 * x_93 + 78 x_78 * x_99 + 22 x_79 * x_80 + 28 x_79 * x_91
   + 44 x_79 * x_92 + 82 x_80 * x_83 + 60 x_80 * x_85 + 42 x_80 * x_88
   + 78 x_80 * x_93 + 4 x_80 * x_94 + 12 x_80 * x_95 + 78 x_80 * x_97
   + 62 x_80 * x_99 + 54 x_80 * x_100 + 28 x_81 * x_82 + 88 x_81 * x_97
   + 16 x_82 * x_83 + 34 x_82 * x_87 + 100 x_82 * x_89 + 80 x_82 * x_90
   + 88 x_82 * x_93 + 70 x_82 * x_94 + 10 x_83 * x_85 + 56 x_83 * x_92
   + 20 x_83 * x_95 + 26 x_83 * x_97 + 32 x_84 * x_86 + 66 x_85 * x_86
   + 84 x_85 * x_92 + 10 x_85 * x_96 + 40 x_86 * x_89 + 60 x_86 * x_92
   + 4 x_86 * x_100 + 72 x_87 * x_88 + 98 x_87 * x_90 + 6 x_87 * x_92
   + 28 x_87 * x_95 + 94 x_87 * x_96 + 4 x_87 * x_98 + 34 x_88 * x_95
   + 44 x_88 * x_99 + 48 x_89 * x_90 + 8 x_89 * x_93 + 46 x_89 * x_94
   + 96 x_89 * x_95 + 86 x_89 * x_96 + 88 x_89 * x_97 + 2 x_90 * x_92
   + 96 x_90 * x_94 + 80 x_90 * x_97 + 98 x_91 * x_97 + 88 x_91 * x_99
   + 78 x_92 * x_94 + 80 x_92 * x_95 + 48 x_92 * x_97 + 34 x_92 * x_98
   + 40 x_93 * x_97 + 22 x_94 * x_96 + 78 x_95 * x_96 + 2 x_95 * x_97
   + 10 x_95 * x_99 + 50 x_97 * x_98 + 66 x_97 * x_99 + 48 x_98 * x_99
   + 12 x_99 * x_100 ] / 2 
Subject To
 R0: 18 x_1 + 17 x_2 + 17 x_3 + 21 x_4 + 16 x_5 + 15 x_6 + 20 x_7 + x_8
   + 6 x_9 + 17 x_10 + 9 x_11 + 23 x_12 + 5 x_13 + 21 x_14 + 24 x_15
   + 13 x_16 + 23 x_17 + 24 x_18 + 3 x_19 + 15 x_20 + 6 x_21 + 6 x_22
   + 25 x_23 + 5 x_24 + 12 x_25 + 7 x_26 + 21 x_27 + 21 x_28 + 20 x_29
   + 14 x_30 + 5 x_31 + x_32 + 8 x_33 + 11 x_34 + 9 x_35 + 6 x_36 + 14 x_37
   + 13 x_38 + 12 x_39 + 14 x_40 + x_41 + 22 x_42 + 21 x_43 + 20 x_44
   + 19 x_45 + 2 x_46 + 15 x_47 + 10 x_48 + 5 x_49 + 14 x_50 + 24 x_51
   + 5 x_52 + 18 x_53 + 7 x_54 + 14 x_55 + 11 x_56 + 21 x_57 + 22 x_58
   + 25 x_59 + 13 x_60 + 10 x_61 + 17 x_62 + 25 x_63 + 22 x_64 + 6 x_65
   + 24 x_66 + 13 x_67 + x_68 + 17 x_69 + 3 x_70 + 2 x_71 + 11 x_72
   + 16 x_73 + 15 x_74 + 21 x_75 + 9 x_76 + 24 x_77 + 5 x_78 + 9 x_79
   + 24 x_80 + 5 x_81 + 2 x_82 + 13 x_83 + 5 x_84 + 16 x_85 + 7 x_86
   + 17 x_87 + 23 x_88 + 2 x_89 + 4 x_90 + 16 x_91 + 25 x_92 + 9 x_93
   + 7 x_94 + 13 x_95 + 11 x_96 + 11 x_97 + 17 x_98 + 14 x_99 + 2 x_100
   <= 563
Bounds
Binaries
 x_1 x_2 x_3 x_4 x_5 x_6 x_7 x_8 x_9 x_10 x_11 x_12 x_13 x_14 x_15 x_16
 x_17 x_18 x_19 x_20 x_21 x_22 x_23 x_24 x_25 x_26 x_27 x_28 x_29 x_30 x_31
 x_32 x_33 x_34 x_35 x_36 x_37 x_38 x_39 x_40 x_41 x_42 x_43 x_44 x_45 x_46
 x_47 x_48 x_49 x_50 x_51 x_52 x_53 x_54 x_55 x_56 x_57 x_58 x_59 x_60 x_61
 x_62 x_63 x_64 x_65 x_66 x_67 x_68 x_69 x_70 x_71 x_72 x_73 x_74 x_75 x_76
 x_77 x_78 x_79 x_80 x_81 x_82 x_83 x_84 x_85 x_86 x_87 x_88 x_89 x_90 x_91
 x_92 x_93 x_94 x_95 x_96 x_97 x_98 x_99 x_100
End
